NAME : lkh_invoer.0.tour
COMMENT : Length = 0
COMMENT : Found by LKH [Keld Helsgaun] Wed Aug  3 12:11:00 2022
TYPE : TOUR
DIMENSION : 50
TOUR_SECTION
1
3
20
37
22
13
2
18
29
42
16
49
48
14
21
39
17
38
8
32
43
10
45
27
25
7
12
41
9
28
50
15
31
47
44
40
34
36
33
24
46
11
26
6
19
35
30
23
4
5
-1
EOF
